CPXPARAM_Read_DataCheck                          1
Found incumbent of value 0.000000 after 0.00 sec. (0.77 ticks)
Tried aggregator 1 time.
MIP Presolve eliminated 5 rows and 0 columns.
MIP Presolve modified 1 coefficients.
Reduced MIP has 2044 rows, 30015 columns, and 140051 nonzeros.
Reduced MIP has 30015 binaries, 0 generals, 0 SOSs, and 0 indicators.
Presolve time = 0.06 sec. (54.63 ticks)
Tried aggregator 1 time.
Reduced MIP has 2044 rows, 30015 columns, and 140051 nonzeros.
Reduced MIP has 30015 binaries, 0 generals, 0 SOSs, and 0 indicators.
Presolve time = 0.09 sec. (61.15 ticks)
Probing time = 0.08 sec. (16.97 ticks)
Clique table members: 100091.
MIP emphasis: balance optimality and feasibility.
MIP search method: dynamic search.
Parallel mode: deterministic, using up to 4 threads.
Root relaxation solution time = 0.20 sec. (161.39 ticks)

        Nodes                                         Cuts/
   Node  Left     Objective  IInf  Best Integer    Best Bound    ItCnt     Gap

*     0+    0                            0.0000   186599.0000              --- 
*     0+    0                         8880.0000   186599.0000              --- 
      0     0   105924.6275    15     8880.0000   105924.6275     7023     --- 
*     0+    0                        57908.0000   105924.6275            82.92%
*     0+    0                        59197.0000   105924.6275            78.94%
      0     0   105880.2560    15    59197.0000  Cliques: 611     7055   46.59%
*     0+    0                        59674.0000    86775.4480            45.42%
      0     0    91268.1909   620    59674.0000     Cuts: 611    13307   31.88%
      0     0    91241.0700   620    59674.0000  Cliques: 611    13339   26.04%
      0     2    91241.0700   620    59674.0000    75215.9765    13339   26.04%
Elapsed time = 23.03 sec. (13762.59 ticks, tree = 0.01 MB, solutions = 5)
      7     4    84466.6608    29    59674.0000    75215.9765    14973   26.04%
     33    33    59825.5320     8    59674.0000    75215.9765    29693   26.04%
     73    46    65447.5455    10    59674.0000    75215.9765    39775   26.04%
    107    75    64944.5930     7    59674.0000    75215.9765    51003   26.04%
    137    83    64132.5550    10    59674.0000    75215.9765    57186   26.04%
    167    92    60473.1784     8    59674.0000    75215.9765    66268   26.04%
    206   114    65134.9636    12    59674.0000    74195.1082    77277   24.33%
    238   133        cutoff          59674.0000    73896.5977    89053   23.83%
    266   143    60236.2672     8    59674.0000    73743.2700    98687   23.58%
    372   181    62323.7825     5    59674.0000    71643.0045   134072   20.06%
Elapsed time = 28.94 sec. (16911.95 ticks, tree = 5.05 MB, solutions = 5)
    400   170        cutoff          59674.0000    71643.0045   126783   20.06%
    497   197    62460.0715    10    59674.0000    70950.1215   163406   18.90%
    703   177        cutoff          59674.0000    66615.4901   205473   11.63%

Clique cuts applied:  1395
Cover cuts applied:  1
Implied bound cuts applied:  7
Mixed integer rounding cuts applied:  9

Root node processing (before b&c):
  Real time             =   22.92 sec. (13696.31 ticks)
Parallel b&c, 4 threads:
  Real time             =   14.00 sec. (7867.80 ticks)
  Sync time (average)   =    1.32 sec.
  Wait time (average)   =    0.02 sec.
                          ------------
Total (root+branch&cut) =   36.92 sec. (21564.10 ticks)
